8492
17, 3, 19, 45, 41, 8, 10, 9, 43, 33, 4, 6, 15, 5, 24, 48, 37, 38, 40, 39, 36, 35, 34, 44, 16, 29, 47, 26, 27, 28, 13, 14, 52, 11, 51, 12, 25, 46, 50, 20, 23, 1, 32, 49, 22, 18, 31, 21, 30, 2, 7, 42
